(declare-fun Data.Type.Coercion.Coercion () Int)
(declare-fun VV$35$$35$F$35$$35$7 () Int)
(declare-fun GHC.Stack.Types.FreezeCallStack () Int)
(declare-fun GHC.Word.W64$35$ () Int)
(declare-fun Data.ByteString.Internal.Type.BS () Int)
(declare-fun Data.Semigroup.Internal.Any () Int)
(declare-fun GHC.TypeNats.SomeNat () Int)
(declare-fun GHC.IO.Unmasked () Int)
(declare-fun GHC.MVar.MVar () Int)
(declare-fun Control.Concurrent.QSemN.$36$WQSemN () Int)
(declare-fun Data.Type.Equality.$36$WRefl () Int)
(declare-fun autolen () Int)
(declare-fun GHC.Stack.Types.pushCallStack () Int)
(declare-fun lq_anf$36$$35$$35$7205759403792815165$35$$35$d5BP () Str)
(declare-fun Data.Either.Right () Int)
(declare-fun GHC.Stack.Types.PushCallStack () Int)
(declare-fun GHC.Word.W16$35$ () Int)
(declare-fun GHC.Base.$43$$43$ () Int)
(declare-fun GHC.Types.True () Bool)
(declare-fun GHC.Base.. () Int)
(declare-fun lq_anf$36$$35$$35$7205759403792815153$35$$35$d5BD () Int)
(declare-fun head () Int)
(declare-fun Data.Text.Encoding.Error.DecodeError () Int)
(declare-fun tail () Int)
(declare-fun GHC.Classes.compare () Int)
(declare-fun GHC.Real.quot () Int)
(declare-fun lq_anf$36$$35$$35$7205759403792815160$35$$35$d5BK () Int)
(declare-fun VV$35$$35$F$35$$35$3 () Int)
(declare-fun GHC.Real.$36$W$58$$37$ () Int)
(declare-fun GHC.Float.sin () Int)
(declare-fun x_Tuple21 () Int)
(declare-fun GHC.TypeLits.SomeSymbol () Int)
(declare-fun GHC.IO.Handle.Types.FileHandle () Int)
(declare-fun GHC.Generics.K1 () Int)
(declare-fun Data.Text.Internal.$36$WText () Int)
(declare-fun Data.ByteString.Lazy.Internal.Chunk () Int)
(declare-fun VV$35$$35$F$35$$35$2 () Int)
(declare-fun RefinementHelper.filterInvalid () Int)
(declare-fun GHC.IO.Exception.ExitSuccess () Int)
(declare-fun lq_tmp$36$x$35$$35$697 () Int)
(declare-fun lq_anf$36$$35$$35$7205759403792815139$35$$35$d5Bp () Str)
(declare-fun VV$35$$35$F$35$$35$1 () Int)
(declare-fun lit$36$src$47$RefinementHelper.hs () Str)
(declare-fun GHC.Real.fromRational () Int)
(declare-fun GHC.Real.recip () Int)
(declare-fun GHC.Num.abs () Int)
(declare-fun GHC.Conc.Sync.ThreadId () Int)
(declare-fun GHC.IO.Exception.IOError () Int)
(declare-fun lq_anf$36$$35$$35$7205759403792815140$35$$35$d5Bq () Str)
(declare-fun GHC.Float.$42$$42$ () Int)
(declare-fun lq_karg$36$lq_anf$36$$35$$35$7205759403792815162$35$$35$d5BM$35$$35$k_$35$$35$745 () Bool)
(declare-fun x_Tuple22 () Int)
(declare-fun lq_anf$36$$35$$35$7205759403792815148$35$$35$d5By () Int)
(declare-fun Data.Semigroup.Internal.Alt () Int)
(declare-fun GHC.Real.$47$ () Int)
(declare-fun Data.Typeable.Internal.$36$WSomeTypeRep () Int)
(declare-fun GHC.Base.$36$ () Int)
(declare-fun fldList () Int)
(declare-fun GHC.Weak.Weak () Int)
(declare-fun lq_tmp$36$x$35$$35$753 () Int)
(declare-fun lq_anf$36$$35$$35$7205759403792815152$35$$35$d5BC () Int)
(declare-fun GHC.Types.I$35$ () Int)
(declare-fun lq_karg$36$lq_anf$36$$35$$35$7205759403792815160$35$$35$d5BK$35$$35$k_$35$$35$707 () Int)
(declare-fun GHC.IO.Handle.Types.$36$WFileHandle () Int)
(declare-fun lq_anf$36$$35$$35$7205759403792815141$35$$35$d5Br () Str)
(declare-fun GHC.Num.negate () Int)
(declare-fun GHC.IO.Exception.ExitFailure () Int)
(declare-fun GHC.Num.Integer.IN () Int)
(declare-fun GHC.IO.Handle.Types.DuplexHandle () Int)
(declare-fun GHC.Enum.C$58$Bounded () Int)
(declare-fun lqdc$35$$35$$36$select$35$$35$GHC.Maybe.Just$35$$35$1 () Int)
(declare-fun GHC.Float.atanh () Int)
(declare-fun GHC.IO.Handle.Types.$36$WDuplexHandle () Int)
(declare-fun isPrime () Int)
(declare-fun lq_karg$36$VV$35$$35$624$35$$35$k_$35$$35$625 () Int)
(declare-fun fix$36$$36$dIP_a1sF () Int)
(declare-fun GHC.IO.IOMode.ReadMode () Int)
(declare-fun GHC.Types.$58$ () Int)
(declare-fun lq_tmp$36$x$35$$35$606 () Int)
(declare-fun Data.Either.Left () Int)
(declare-fun Data.Semigroup.Internal.Sum () Int)
(declare-fun GHC.Float.atan () Int)
(declare-fun isLeft () Int)
(declare-fun GHC.Float.log () Int)
(declare-fun GHC.Types.Module () Int)
(declare-fun GHC.OverloadedLabels.C$58$IsLabel () Int)
(declare-fun lq_anf$36$$35$$35$7205759403792815158$35$$35$d5BI () Str)
(declare-fun lit$36$Invalid () Str)
(declare-fun totalityError () Int)
(declare-fun GHC.Num.fromInteger () Int)
(declare-fun GHC.Real.fromIntegral () Int)
(declare-fun GHC.Float.asin () Int)
(declare-fun lq_karg$36$lq_anf$36$$35$$35$7205759403792815163$35$$35$d5BN$35$$35$k_$35$$35$745 () Bool)
(declare-fun GHC.Classes.$61$$61$ () Int)
(declare-fun lq_tmp$36$x$35$$35$653 () Int)
(declare-fun lq_anf$36$$35$$35$7205759403792815163$35$$35$d5BN () Bool)
(declare-fun Data.ByteString.Internal.Type.$36$WBS () Int)
(declare-fun GHC.Types.TrNameD () Int)
(declare-fun VV$35$$35$F$35$$35$9 () Int)
(declare-fun GHC.Types.EQ () Int)
(declare-fun Data.ByteString.Lazy.Internal.$36$WChunk () Int)
(declare-fun GHC.Float.tanh () Int)
(declare-fun Data.Semigroup.Internal.Dual () Int)
(declare-fun VV$35$$35$F$35$$35$8 () Int)
(declare-fun Data.Complex.$58$$43$ () Int)
(declare-fun lq_tmp$36$x$35$$35$754 () Int)
(declare-fun System.Posix.Types.Fd () Int)
(declare-fun GHC.TypeNats.C$58$KnownNat () Int)
(declare-fun Data.Typeable.Internal.SomeTypeRep () Int)
(declare-fun lit$36$RefinementHelper () Str)
(declare-fun GHC.Maybe.Nothing () Int)
(declare-fun lq_karg$36$lq_anf$36$$35$$35$7205759403792815164$35$$35$d5BO$35$$35$k_$35$$35$745 () Str)
(declare-fun lq_anf$36$$35$$35$7205759403792815156$35$$35$d5BG () Str)
(declare-fun GHC.Types.LT () Int)
(declare-fun Data.Tuple.snd () Int)
(declare-fun lq_tmp$36$x$35$$35$487 () Int)
(declare-fun Control.Concurrent.Chan.$36$WChan () Int)
(declare-fun GHC.Types.False () Bool)
(declare-fun maximum () Int)
(declare-fun GHC.Stack.Types.SrcLoc () Int)
(declare-fun GHC.Word.W8$35$ () Int)
(declare-fun GHC.Base.$58$$124$ () Int)
(declare-fun lq_anf$36$$35$$35$7205759403792815147$35$$35$d5Bx () Int)
(declare-fun GHC.Types.GT () Int)
(declare-fun GHC.Real.mod () Int)
(declare-fun Data.Type.Equality.Refl () Int)
(declare-fun GHC.Classes.not () Int)
(declare-fun lq_tmp$36$x$35$$35$486 () Int)
(declare-fun Control.Monad.Trans.Except.ExceptT () Int)
(declare-fun lq_karg$36$lq_anf$36$$35$$35$7205759403792815162$35$$35$d5BM$35$$35$k_$35$$35$707 () Bool)
(declare-fun lq_anf$36$$35$$35$7205759403792815145$35$$35$d5Bv () Int)
(declare-fun Data.Text.Internal.Text () Int)
(declare-fun GHC.Tuple.$40$$41$ () Int)
(declare-fun lq_anf$36$$35$$35$7205759403792815159$35$$35$d5BJ () Int)
(declare-fun GHC.Types.Eq$35$ () Int)
(declare-fun lq_tmp$36$x$35$$35$485 () Int)
(declare-fun GHC.Generics.M1 () Int)
(declare-fun GHC.Float.cosh () Int)
(declare-fun lq_anf$36$$35$$35$7205759403792815151$35$$35$d5BB () Int)
(declare-fun Protolude.Panic.FatalError () Int)
(declare-fun RefinementHelper.die () Int)
(declare-fun liquid_internal_this () Int)
(declare-fun lq_tmp$36$x$35$$35$522 () Int)
(declare-fun lq_anf$36$$35$$35$7205759403792815142$35$$35$d5Bs () Str)
(declare-fun snd () Int)
(declare-fun GHC.Err.error () Int)
(declare-fun lq_anf$36$$35$$35$7205759403792815162$35$$35$d5BM () Bool)
(declare-fun Data.Semigroup.Internal.Product () Int)
(declare-fun GHC.Classes.$36$fOrdInt () Int)
(declare-fun lq_karg$36$lq_anf$36$$35$$35$7205759403792815163$35$$35$d5BN$35$$35$k_$35$$35$707 () Bool)
(declare-fun GHC.Float.tan () Int)
(declare-fun GHC.Float.acos () Int)
(declare-fun len () Int)
(declare-fun GHC.Classes.$60$ () Int)
(declare-fun n$35$$35$a1rN () Int)
(declare-fun GHC.Num.Integer.IP () Int)
(declare-fun Data.Typeable.Internal.C$58$Typeable () Int)
(declare-fun lq_anf$36$$35$$35$7205759403792815138$35$$35$d5Bo () Str)
(declare-fun GHC.Classes.$62$$61$ () Int)
(declare-fun addrLen () Int)
(declare-fun cast_as_int () Int)
(declare-fun Data.Monoid.First () Int)
(declare-fun GHC.Maybe.Just () Int)
(declare-fun Data.ByteString.Lazy.Internal.Empty () Int)
(declare-fun GHC.IO.IOMode.ReadWriteMode () Int)
(declare-fun GHC.ExecutionStack.Internal.Location () Int)
(declare-fun GHC.Real.divMod () Int)
(declare-fun lq_karg$36$VV$35$$35$706$35$$35$k_$35$$35$707 () Int)
(declare-fun GHC.Classes.$62$ () Int)
(declare-fun cast_as () Int)
(declare-fun VV$35$$35$F$35$$35$13 () Str)
(declare-fun lq_karg$36$n$35$$35$a1rN$35$$35$k_$35$$35$707 () Int)
(declare-fun Data.Monoid.Ap () Int)
(declare-fun GHC.Float.pi () Int)
(declare-fun GHC.Float.acosh () Int)
(declare-fun Data.Functor.Const.Const () Int)
(declare-fun GHC.Classes.min () Int)
(declare-fun GHC.Num.Integer.IS () Int)
(declare-fun VV$35$$35$F$35$$35$12 () Int)
(declare-fun lq_anf$36$$35$$35$7205759403792815144$35$$35$d5Bu () Str)
(declare-fun GHC.Classes.$38$$38$ () Int)
(declare-fun GHC.Float.sqrt () Int)
(declare-fun lq_karg$36$lq_anf$36$$35$$35$7205759403792815161$35$$35$d5BL$35$$35$k_$35$$35$707 () Int)
(declare-fun GHC.Float.logBase () Int)
(declare-fun GHC.Float.sinh () Int)
(declare-fun Data.Functor.Identity.Identity () Int)
(declare-fun lq_karg$36$n$35$$35$a1rN$35$$35$k_$35$$35$745 () Int)
(declare-fun GHC.Real.quotRem () Int)
(declare-fun lq_tmp$36$x$35$$35$735 () Int)
(declare-fun GHC.Classes.max () Int)
(declare-fun papp3 () Int)
(declare-fun lq_tmp$36$x$35$$35$528 () Int)
(declare-fun GHC.Real.div () Int)
(declare-fun GHC.Real.$94$ () Int)
(declare-fun GHC.Types.TrNameS () Int)
(declare-fun lq_tmp$36$x$35$$35$741 () Int)
(declare-fun fst () Int)
(declare-fun GHC.Exception.Type.SomeException () Int)
(declare-fun Control.Concurrent.Chan.Chan () Int)
(declare-fun lq_anf$36$$35$$35$7205759403792815149$35$$35$d5Bz () Int)
(declare-fun lq_karg$36$VV$35$$35$744$35$$35$k_$35$$35$745 () Int)
(declare-fun Control.Concurrent.QSem.QSem () Int)
(declare-fun lq_karg$36$lq_anf$36$$35$$35$7205759403792815165$35$$35$d5BP$35$$35$k_$35$$35$745 () Str)
(declare-fun lq_karg$36$lq_anf$36$$35$$35$7205759403792815161$35$$35$d5BL$35$$35$k_$35$$35$745 () Int)
(declare-fun GHC.IO.IOMode.WriteMode () Int)
(declare-fun lq_anf$36$$35$$35$7205759403792815143$35$$35$d5Bt () Str)
(declare-fun lit$36$error () Str)
(declare-fun papp2 () Int)
(declare-fun GHC.TypeLits.C$58$KnownSymbol () Int)
(declare-fun GHC.Num.$45$ () Int)
(declare-fun GHC.IO.IOMode.AppendMode () Int)
(declare-fun lq_anf$36$$35$$35$7205759403792815161$35$$35$d5BL () Int)
(declare-fun lq_anf$36$$35$$35$7205759403792815157$35$$35$d5BH () Int)
(declare-fun GHC.ExecutionStack.Internal.SrcLoc () Int)
(declare-fun GHC.Types.C$35$ () Int)
(declare-fun Data.Complex.$36$W$58$$43$ () Int)
(declare-fun papp1 () Int)
(declare-fun Data.Tuple.fst () Int)
(declare-fun GHC.IO.MaskedUninterruptible () Int)
(declare-fun lq_anf$36$$35$$35$7205759403792815137$35$$35$d5Bn () Str)
(declare-fun lit$36$grfn$45$1.0.0.0$45$inplace () Str)
(declare-fun Data.Text.Internal.Lazy.$36$WChunk () Int)
(declare-fun lq_anf$36$$35$$35$7205759403792815155$35$$35$d5BF () Int)
(declare-fun lq_anf$36$$35$$35$7205759403792815146$35$$35$d5Bw () Int)
(declare-fun GHC.Float.asinh () Int)
(declare-fun GHC.Generics.Comp1 () Int)
(declare-fun GHC.IO.MaskedInterruptible () Int)
(declare-fun GHC.Classes.$47$$61$ () Int)
(declare-fun Data.Monoid.Last () Int)
(declare-fun GHC.Float.cos () Int)
(declare-fun GHC.Float.exp () Int)
(declare-fun lq_anf$36$$35$$35$7205759403792815164$35$$35$d5BO () Str)
(declare-fun lq_anf$36$$35$$35$7205759403792815150$35$$35$d5BA () Int)
(declare-fun papp7 () Int)
(declare-fun lq_anf$36$$35$$35$7205759403792815154$35$$35$d5BE () Int)
(declare-fun GHC.Types.$91$$93$ () Int)
(declare-fun RefinementHelper.$36$trModule () Int)
(declare-fun GHC.Real.toInteger () Int)
(declare-fun GHC.Real.$58$$37$ () Int)
(declare-fun GHC.Stack.Types.EmptyCallStack () Int)
(declare-fun lq_tmp$36$x$35$$35$561 () Int)
(declare-fun GHC.Real.rem () Int)
(declare-fun papp6 () Int)
(declare-fun Data.Text.Internal.Lazy.Chunk () Int)
(declare-fun Data.Text.Internal.Lazy.Empty () Int)
(declare-fun RefinementHelper.intsGte2 () Int)
(declare-fun GHC.Stack.Types.emptyCallStack () Int)
(declare-fun GHC.Classes.C$58$IP () Int)
(declare-fun Control.Applicative.ZipList () Int)
(declare-fun GHC.CString.unpackCString$35$ () Int)
(declare-fun papp5 () Int)
(declare-fun GHC.Num.$42$ () Int)
(declare-fun GHC.Classes.$60$$61$ () Int)
(declare-fun GHC.Word.W32$35$ () Int)
(declare-fun GHC.Classes.$124$$124$ () Int)
(declare-fun GHC.Tuple.$40$$44$$41$ () Int)
(declare-fun product () Int)
(declare-fun papp4 () Int)
(declare-fun Control.Concurrent.QSemN.QSemN () Int)
(declare-fun Data.Text.Encoding.Error.EncodeError () Int)
(declare-fun GHC.Num.$43$ () Int)
(declare-fun Data.Semigroup.Internal.All () Int)
(declare-fun lq_karg$36$lq_anf$36$$35$$35$7205759403792815160$35$$35$d5BK$35$$35$k_$35$$35$745 () Int)
(declare-fun apply$35$$35$15 (Int (_ BitVec 32)) Int)
(declare-fun apply$35$$35$4 (Int Int) (_ BitVec 64))
(declare-fun apply$35$$35$20 (Int (_ BitVec 64)) Int)
(declare-fun apply$35$$35$3 (Int Int) (_ BitVec 32))
(declare-fun apply$35$$35$18 (Int (_ BitVec 32)) (_ BitVec 32))
(declare-fun apply$35$$35$24 (Int (_ BitVec 64)) (_ BitVec 64))
(declare-fun apply$35$$35$19 (Int (_ BitVec 32)) (_ BitVec 64))
(declare-fun apply$35$$35$6 (Int Bool) Bool)
(declare-fun apply$35$$35$23 (Int (_ BitVec 64)) (_ BitVec 32))
(declare-fun apply$35$$35$0 (Int Int) Int)
(declare-fun apply$35$$35$12 (Int Str) Str)
(declare-fun apply$35$$35$7 (Int Bool) Str)
(declare-fun apply$35$$35$11 (Int Str) Bool)
(declare-fun apply$35$$35$17 (Int (_ BitVec 32)) Str)
(declare-fun apply$35$$35$13 (Int Str) (_ BitVec 32))
(declare-fun apply$35$$35$22 (Int (_ BitVec 64)) Str)
(declare-fun apply$35$$35$14 (Int Str) (_ BitVec 64))
(declare-fun apply$35$$35$16 (Int (_ BitVec 32)) Bool)
(declare-fun apply$35$$35$8 (Int Bool) (_ BitVec 32))
(declare-fun apply$35$$35$21 (Int (_ BitVec 64)) Bool)
(declare-fun apply$35$$35$9 (Int Bool) (_ BitVec 64))
(declare-fun apply$35$$35$5 (Int Bool) Int)
(declare-fun apply$35$$35$1 (Int Int) Bool)
(declare-fun apply$35$$35$2 (Int Int) Str)
(declare-fun apply$35$$35$10 (Int Str) Int)
(declare-fun coerce$35$$35$15 ((_ BitVec 32)) Int)
(declare-fun coerce$35$$35$4 (Int) (_ BitVec 64))
(declare-fun coerce$35$$35$20 ((_ BitVec 64)) Int)
(declare-fun coerce$35$$35$3 (Int) (_ BitVec 32))
(declare-fun coerce$35$$35$18 ((_ BitVec 32)) (_ BitVec 32))
(declare-fun coerce$35$$35$24 ((_ BitVec 64)) (_ BitVec 64))
(declare-fun coerce$35$$35$19 ((_ BitVec 32)) (_ BitVec 64))
(declare-fun coerce$35$$35$6 (Bool) Bool)
(declare-fun coerce$35$$35$23 ((_ BitVec 64)) (_ BitVec 32))
(declare-fun coerce$35$$35$0 (Int) Int)
(declare-fun coerce$35$$35$12 (Str) Str)
(declare-fun coerce$35$$35$7 (Bool) Str)
(declare-fun coerce$35$$35$11 (Str) Bool)
(declare-fun coerce$35$$35$17 ((_ BitVec 32)) Str)
(declare-fun coerce$35$$35$13 (Str) (_ BitVec 32))
(declare-fun coerce$35$$35$22 ((_ BitVec 64)) Str)
(declare-fun coerce$35$$35$14 (Str) (_ BitVec 64))
(declare-fun coerce$35$$35$16 ((_ BitVec 32)) Bool)
(declare-fun coerce$35$$35$8 (Bool) (_ BitVec 32))
(declare-fun coerce$35$$35$21 ((_ BitVec 64)) Bool)
(declare-fun coerce$35$$35$9 (Bool) (_ BitVec 64))
(declare-fun coerce$35$$35$5 (Bool) Int)
(declare-fun coerce$35$$35$1 (Int) Bool)
(declare-fun coerce$35$$35$2 (Int) Str)
(declare-fun coerce$35$$35$10 (Str) Int)
(declare-fun smt_lambda$35$$35$15 ((_ BitVec 32) Int) Int)
(declare-fun smt_lambda$35$$35$4 (Int (_ BitVec 64)) Int)
(declare-fun smt_lambda$35$$35$20 ((_ BitVec 64) Int) Int)
(declare-fun smt_lambda$35$$35$3 (Int (_ BitVec 32)) Int)
(declare-fun smt_lambda$35$$35$18 ((_ BitVec 32) (_ BitVec 32)) Int)
(declare-fun smt_lambda$35$$35$24 ((_ BitVec 64) (_ BitVec 64)) Int)
(declare-fun smt_lambda$35$$35$19 ((_ BitVec 32) (_ BitVec 64)) Int)
(declare-fun smt_lambda$35$$35$6 (Bool Bool) Int)
(declare-fun smt_lambda$35$$35$23 ((_ BitVec 64) (_ BitVec 32)) Int)
(declare-fun smt_lambda$35$$35$0 (Int Int) Int)
(declare-fun smt_lambda$35$$35$12 (Str Str) Int)
(declare-fun smt_lambda$35$$35$7 (Bool Str) Int)
(declare-fun smt_lambda$35$$35$11 (Str Bool) Int)
(declare-fun smt_lambda$35$$35$17 ((_ BitVec 32) Str) Int)
(declare-fun smt_lambda$35$$35$13 (Str (_ BitVec 32)) Int)
(declare-fun smt_lambda$35$$35$22 ((_ BitVec 64) Str) Int)
(declare-fun smt_lambda$35$$35$14 (Str (_ BitVec 64)) Int)
(declare-fun smt_lambda$35$$35$16 ((_ BitVec 32) Bool) Int)
(declare-fun smt_lambda$35$$35$8 (Bool (_ BitVec 32)) Int)
(declare-fun smt_lambda$35$$35$21 ((_ BitVec 64) Bool) Int)
(declare-fun smt_lambda$35$$35$9 (Bool (_ BitVec 64)) Int)
(declare-fun smt_lambda$35$$35$5 (Bool Int) Int)
(declare-fun smt_lambda$35$$35$1 (Int Bool) Int)
(declare-fun smt_lambda$35$$35$2 (Int Str) Int)
(declare-fun smt_lambda$35$$35$10 (Str Int) Int)
(declare-fun lam_arg$35$$35$1$35$$35$15 () (_ BitVec 32))
(declare-fun lam_arg$35$$35$2$35$$35$15 () (_ BitVec 32))
(declare-fun lam_arg$35$$35$3$35$$35$15 () (_ BitVec 32))
(declare-fun lam_arg$35$$35$4$35$$35$15 () (_ BitVec 32))
(declare-fun lam_arg$35$$35$5$35$$35$15 () (_ BitVec 32))
(declare-fun lam_arg$35$$35$6$35$$35$15 () (_ BitVec 32))
(declare-fun lam_arg$35$$35$7$35$$35$15 () (_ BitVec 32))
(declare-fun lam_arg$35$$35$1$35$$35$20 () (_ BitVec 64))
(declare-fun lam_arg$35$$35$2$35$$35$20 () (_ BitVec 64))
(declare-fun lam_arg$35$$35$3$35$$35$20 () (_ BitVec 64))
(declare-fun lam_arg$35$$35$4$35$$35$20 () (_ BitVec 64))
(declare-fun lam_arg$35$$35$5$35$$35$20 () (_ BitVec 64))
(declare-fun lam_arg$35$$35$6$35$$35$20 () (_ BitVec 64))
(declare-fun lam_arg$35$$35$7$35$$35$20 () (_ BitVec 64))
(declare-fun lam_arg$35$$35$1$35$$35$0 () Int)
(declare-fun lam_arg$35$$35$2$35$$35$0 () Int)
(declare-fun lam_arg$35$$35$3$35$$35$0 () Int)
(declare-fun lam_arg$35$$35$4$35$$35$0 () Int)
(declare-fun lam_arg$35$$35$5$35$$35$0 () Int)
(declare-fun lam_arg$35$$35$6$35$$35$0 () Int)
(declare-fun lam_arg$35$$35$7$35$$35$0 () Int)
(declare-fun lam_arg$35$$35$1$35$$35$5 () Bool)
(declare-fun lam_arg$35$$35$2$35$$35$5 () Bool)
(declare-fun lam_arg$35$$35$3$35$$35$5 () Bool)
(declare-fun lam_arg$35$$35$4$35$$35$5 () Bool)
(declare-fun lam_arg$35$$35$5$35$$35$5 () Bool)
(declare-fun lam_arg$35$$35$6$35$$35$5 () Bool)
(declare-fun lam_arg$35$$35$7$35$$35$5 () Bool)
(declare-fun lam_arg$35$$35$1$35$$35$10 () Str)
(declare-fun lam_arg$35$$35$2$35$$35$10 () Str)
(declare-fun lam_arg$35$$35$3$35$$35$10 () Str)
(declare-fun lam_arg$35$$35$4$35$$35$10 () Str)
(declare-fun lam_arg$35$$35$5$35$$35$10 () Str)
(declare-fun lam_arg$35$$35$6$35$$35$10 () Str)
(declare-fun lam_arg$35$$35$7$35$$35$10 () Str)
(assert (distinct GHC.IO.MaskedInterruptible GHC.IO.MaskedUninterruptible GHC.IO.Unmasked))

(assert (distinct lit$36$grfn$45$1.0.0.0$45$inplace lit$36$error lit$36$RefinementHelper lit$36$Invalid lit$36$src$47$RefinementHelper.hs))


(assert (distinct GHC.Types.False GHC.Types.True))

(assert (distinct GHC.IO.IOMode.AppendMode GHC.IO.IOMode.WriteMode GHC.IO.IOMode.ReadWriteMode GHC.IO.IOMode.ReadMode))


(assert (distinct GHC.Types.GT GHC.Types.LT GHC.Types.EQ))
(assert (= (strLen lit$36$src$47$RefinementHelper.hs) 23))
(assert (= (strLen lit$36$Invalid) 7))
(assert (= (strLen lit$36$RefinementHelper) 16))
(assert (= (strLen lit$36$error) 5))
(assert (= (strLen lit$36$grfn$45$1.0.0.0$45$inplace) 20))
(push 1)
(define-fun b$36$$35$$35$96 () Bool (and (= (apply$35$$35$10 (as len Int) lq_anf$36$$35$$35$7205759403792815140$35$$35$d5Bq) (strLen lq_anf$36$$35$$35$7205759403792815139$35$$35$d5Bp)) (>= (apply$35$$35$10 (as len Int) lq_anf$36$$35$$35$7205759403792815140$35$$35$d5Bq) 0) (= lq_anf$36$$35$$35$7205759403792815140$35$$35$d5Bq lq_anf$36$$35$$35$7205759403792815139$35$$35$d5Bp)))
(define-fun b$36$$35$$35$128 () Bool (and lq_anf$36$$35$$35$7205759403792815163$35$$35$d5BN (= lq_anf$36$$35$$35$7205759403792815163$35$$35$d5BN (< n$35$$35$a1rN lq_anf$36$$35$$35$7205759403792815161$35$$35$d5BL)) (= lq_anf$36$$35$$35$7205759403792815163$35$$35$d5BN lq_anf$36$$35$$35$7205759403792815162$35$$35$d5BM)))
(define-fun b$36$$35$$35$65 () Bool (not GHC.Types.False))
(define-fun b$36$$35$$35$97 () Bool (= lq_anf$36$$35$$35$7205759403792815141$35$$35$d5Br lit$36$RefinementHelper))
(define-fun b$36$$35$$35$129 () Bool (= lq_anf$36$$35$$35$7205759403792815164$35$$35$d5BO lit$36$Invalid))
(define-fun b$36$$35$$35$98 () Bool (and (= (apply$35$$35$10 (as len Int) lq_anf$36$$35$$35$7205759403792815142$35$$35$d5Bs) (strLen lq_anf$36$$35$$35$7205759403792815141$35$$35$d5Br)) (>= (apply$35$$35$10 (as len Int) lq_anf$36$$35$$35$7205759403792815142$35$$35$d5Bs) 0) (= lq_anf$36$$35$$35$7205759403792815142$35$$35$d5Bs lq_anf$36$$35$$35$7205759403792815141$35$$35$d5Br)))
(define-fun b$36$$35$$35$130 () Bool (and (= (apply$35$$35$10 (as len Int) lq_anf$36$$35$$35$7205759403792815165$35$$35$d5BP) (strLen lq_anf$36$$35$$35$7205759403792815164$35$$35$d5BO)) (>= (apply$35$$35$10 (as len Int) lq_anf$36$$35$$35$7205759403792815165$35$$35$d5BP) 0) (= lq_anf$36$$35$$35$7205759403792815165$35$$35$d5BP lq_anf$36$$35$$35$7205759403792815164$35$$35$d5BO)))
(define-fun b$36$$35$$35$99 () Bool (= lq_anf$36$$35$$35$7205759403792815143$35$$35$d5Bt lit$36$src$47$RefinementHelper.hs))
(define-fun b$36$$35$$35$100 () Bool (and (= (apply$35$$35$10 (as len Int) lq_anf$36$$35$$35$7205759403792815144$35$$35$d5Bu) (strLen lq_anf$36$$35$$35$7205759403792815143$35$$35$d5Bt)) (>= (apply$35$$35$10 (as len Int) lq_anf$36$$35$$35$7205759403792815144$35$$35$d5Bu) 0) (= lq_anf$36$$35$$35$7205759403792815144$35$$35$d5Bu lq_anf$36$$35$$35$7205759403792815143$35$$35$d5Bt)))
(define-fun b$36$$35$$35$101 () Bool (= lq_anf$36$$35$$35$7205759403792815145$35$$35$d5Bv 58))
(define-fun b$36$$35$$35$102 () Bool (= lq_anf$36$$35$$35$7205759403792815146$35$$35$d5Bw lq_anf$36$$35$$35$7205759403792815145$35$$35$d5Bv))
(define-fun b$36$$35$$35$103 () Bool (= lq_anf$36$$35$$35$7205759403792815147$35$$35$d5Bx 7))
(define-fun b$36$$35$$35$104 () Bool (= lq_anf$36$$35$$35$7205759403792815148$35$$35$d5By lq_anf$36$$35$$35$7205759403792815147$35$$35$d5Bx))
(define-fun b$36$$35$$35$105 () Bool (= lq_anf$36$$35$$35$7205759403792815149$35$$35$d5Bz 58))
(define-fun b$36$$35$$35$106 () Bool (= lq_anf$36$$35$$35$7205759403792815150$35$$35$d5BA lq_anf$36$$35$$35$7205759403792815149$35$$35$d5Bz))
(define-fun b$36$$35$$35$107 () Bool (= lq_anf$36$$35$$35$7205759403792815151$35$$35$d5BB 12))
(define-fun b$36$$35$$35$108 () Bool (= lq_anf$36$$35$$35$7205759403792815152$35$$35$d5BC lq_anf$36$$35$$35$7205759403792815151$35$$35$d5BB))
(define-fun b$36$$35$$35$111 () Bool (and (= (apply$35$$35$2 (as fst Int) lq_anf$36$$35$$35$7205759403792815154$35$$35$d5BE) lq_anf$36$$35$$35$7205759403792815138$35$$35$d5Bo) (= (apply$35$$35$0 (as snd Int) lq_anf$36$$35$$35$7205759403792815154$35$$35$d5BE) lq_anf$36$$35$$35$7205759403792815153$35$$35$d5BD) (= (apply$35$$35$2 (as x_Tuple21 Int) lq_anf$36$$35$$35$7205759403792815154$35$$35$d5BE) lq_anf$36$$35$$35$7205759403792815138$35$$35$d5Bo) (= (apply$35$$35$0 (as x_Tuple22 Int) lq_anf$36$$35$$35$7205759403792815154$35$$35$d5BE) lq_anf$36$$35$$35$7205759403792815153$35$$35$d5BD)))
(define-fun b$36$$35$$35$80 () Bool GHC.Types.True)
(define-fun b$36$$35$$35$115 () Bool (= lq_anf$36$$35$$35$7205759403792815156$35$$35$d5BG lit$36$grfn$45$1.0.0.0$45$inplace))
(define-fun b$36$$35$$35$117 () Bool (= lq_anf$36$$35$$35$7205759403792815158$35$$35$d5BI lit$36$RefinementHelper))
(define-fun b$36$$35$$35$152 () Bool (and (= VV$35$$35$F$35$$35$1 lq_tmp$36$x$35$$35$753) (<= 2 VV$35$$35$F$35$$35$1)))
(define-fun b$36$$35$$35$121 () Bool (= lq_anf$36$$35$$35$7205759403792815160$35$$35$d5BK 2))
(define-fun b$36$$35$$35$122 () Bool (= lq_anf$36$$35$$35$7205759403792815161$35$$35$d5BL lq_anf$36$$35$$35$7205759403792815160$35$$35$d5BK))
(define-fun b$36$$35$$35$123 () Bool (= lq_anf$36$$35$$35$7205759403792815162$35$$35$d5BM (< n$35$$35$a1rN lq_anf$36$$35$$35$7205759403792815161$35$$35$d5BL)))
(define-fun b$36$$35$$35$124 () Bool (and (= lq_anf$36$$35$$35$7205759403792815163$35$$35$d5BN (< n$35$$35$a1rN lq_anf$36$$35$$35$7205759403792815161$35$$35$d5BL)) (= lq_anf$36$$35$$35$7205759403792815163$35$$35$d5BN lq_anf$36$$35$$35$7205759403792815162$35$$35$d5BM)))
(define-fun b$36$$35$$35$93 () Bool (= lq_anf$36$$35$$35$7205759403792815137$35$$35$d5Bn lit$36$error))
(define-fun b$36$$35$$35$125 () Bool (and (= lq_anf$36$$35$$35$7205759403792815163$35$$35$d5BN (< n$35$$35$a1rN lq_anf$36$$35$$35$7205759403792815161$35$$35$d5BL)) (= lq_anf$36$$35$$35$7205759403792815163$35$$35$d5BN lq_anf$36$$35$$35$7205759403792815162$35$$35$d5BM)))
(define-fun b$36$$35$$35$157 () Bool (= VV$35$$35$F$35$$35$9 n$35$$35$a1rN))
(define-fun b$36$$35$$35$94 () Bool (and (= (apply$35$$35$10 (as len Int) lq_anf$36$$35$$35$7205759403792815138$35$$35$d5Bo) (strLen lq_anf$36$$35$$35$7205759403792815137$35$$35$d5Bn)) (>= (apply$35$$35$10 (as len Int) lq_anf$36$$35$$35$7205759403792815138$35$$35$d5Bo) 0) (= lq_anf$36$$35$$35$7205759403792815138$35$$35$d5Bo lq_anf$36$$35$$35$7205759403792815137$35$$35$d5Bn)))
(define-fun b$36$$35$$35$126 () Bool (and (not lq_anf$36$$35$$35$7205759403792815163$35$$35$d5BN) (= lq_anf$36$$35$$35$7205759403792815163$35$$35$d5BN (< n$35$$35$a1rN lq_anf$36$$35$$35$7205759403792815161$35$$35$d5BL)) (= lq_anf$36$$35$$35$7205759403792815163$35$$35$d5BN lq_anf$36$$35$$35$7205759403792815162$35$$35$d5BM)))
(define-fun b$36$$35$$35$95 () Bool (= lq_anf$36$$35$$35$7205759403792815139$35$$35$d5Bp lit$36$grfn$45$1.0.0.0$45$inplace))
(define-fun b$36$$35$$35$127 () Bool (and (= lq_anf$36$$35$$35$7205759403792815163$35$$35$d5BN (< n$35$$35$a1rN lq_anf$36$$35$$35$7205759403792815161$35$$35$d5BL)) (= lq_anf$36$$35$$35$7205759403792815163$35$$35$d5BN lq_anf$36$$35$$35$7205759403792815162$35$$35$d5BM)))
(define-fun b$36$$35$$35$159 () Bool false)
(push 1)
(assert (and true b$36$$35$$35$65 b$36$$35$$35$80 b$36$$35$$35$115 b$36$$35$$35$117))
(push 1)
(assert (not (= 0 1)))
(check-sat)
; SMT Says: Sat
(pop 1)
(pop 1)
(push 1)
(push 1)
(assert (and true b$36$$35$$35$65 b$36$$35$$35$80 b$36$$35$$35$152))
(push 1)
(assert (not (<= 2 VV$35$$35$F$35$$35$1)))
(check-sat)
; SMT Says: Unsat
(pop 1)
(pop 1)
(push 1)
(assert (and false b$36$$35$$35$128 b$36$$35$$35$65 b$36$$35$$35$129 b$36$$35$$35$130 b$36$$35$$35$80 b$36$$35$$35$121 b$36$$35$$35$122 b$36$$35$$35$123 b$36$$35$$35$124 b$36$$35$$35$127))
(push 1)
(assert (not (= VV$35$$35$F$35$$35$2 n$35$$35$a1rN)))
(check-sat)
; SMT Says: Unsat
(pop 1)
(pop 1)
(push 1)
(assert (and false b$36$$35$$35$128 b$36$$35$$35$65 b$36$$35$$35$129 b$36$$35$$35$130 b$36$$35$$35$80 b$36$$35$$35$121 b$36$$35$$35$122 b$36$$35$$35$123 b$36$$35$$35$124 b$36$$35$$35$127))
(push 1)
(assert (not (<= 2 VV$35$$35$F$35$$35$3)))
(check-sat)
; SMT Says: Unsat
(pop 1)
(pop 1)
(push 1)
(assert (and (exists ((lq_karg$36$lq_anf$36$$35$$35$7205759403792815160$35$$35$d5BK$35$$35$k_$35$$35$707 Int) (lq_karg$36$lq_anf$36$$35$$35$7205759403792815162$35$$35$d5BM$35$$35$k_$35$$35$707 Bool) (lq_karg$36$lq_anf$36$$35$$35$7205759403792815163$35$$35$d5BN$35$$35$k_$35$$35$707 Bool) (lq_karg$36$VV$35$$35$706$35$$35$k_$35$$35$707 Int) (lq_karg$36$n$35$$35$a1rN$35$$35$k_$35$$35$707 Int) (lq_karg$36$lq_anf$36$$35$$35$7205759403792815161$35$$35$d5BL$35$$35$k_$35$$35$707 Int)) (and (= lq_karg$36$VV$35$$35$706$35$$35$k_$35$$35$707 VV$35$$35$F$35$$35$7) (= lq_karg$36$lq_anf$36$$35$$35$7205759403792815160$35$$35$d5BK$35$$35$k_$35$$35$707 lq_anf$36$$35$$35$7205759403792815160$35$$35$d5BK) (= lq_karg$36$lq_anf$36$$35$$35$7205759403792815161$35$$35$d5BL$35$$35$k_$35$$35$707 lq_anf$36$$35$$35$7205759403792815161$35$$35$d5BL) (= lq_karg$36$lq_anf$36$$35$$35$7205759403792815162$35$$35$d5BM$35$$35$k_$35$$35$707 lq_anf$36$$35$$35$7205759403792815162$35$$35$d5BM) (= lq_karg$36$lq_anf$36$$35$$35$7205759403792815163$35$$35$d5BN$35$$35$k_$35$$35$707 lq_anf$36$$35$$35$7205759403792815163$35$$35$d5BN) (= lq_karg$36$n$35$$35$a1rN$35$$35$k_$35$$35$707 n$35$$35$a1rN) (exists ((VV$35$$35$F$35$$35$9 Int)) (and (= VV$35$$35$F$35$$35$9 n$35$$35$a1rN) (= lq_karg$36$VV$35$$35$706$35$$35$k_$35$$35$707 VV$35$$35$F$35$$35$9) (= lq_karg$36$lq_anf$36$$35$$35$7205759403792815160$35$$35$d5BK$35$$35$k_$35$$35$707 lq_anf$36$$35$$35$7205759403792815160$35$$35$d5BK) (= lq_karg$36$lq_anf$36$$35$$35$7205759403792815161$35$$35$d5BL$35$$35$k_$35$$35$707 lq_anf$36$$35$$35$7205759403792815161$35$$35$d5BL) (= lq_karg$36$lq_anf$36$$35$$35$7205759403792815162$35$$35$d5BM$35$$35$k_$35$$35$707 lq_anf$36$$35$$35$7205759403792815162$35$$35$d5BM) (= lq_karg$36$lq_anf$36$$35$$35$7205759403792815163$35$$35$d5BN$35$$35$k_$35$$35$707 lq_anf$36$$35$$35$7205759403792815163$35$$35$d5BN) (= lq_karg$36$n$35$$35$a1rN$35$$35$k_$35$$35$707 n$35$$35$a1rN))))) b$36$$35$$35$65 b$36$$35$$35$80 b$36$$35$$35$121 b$36$$35$$35$122 b$36$$35$$35$123 b$36$$35$$35$124 b$36$$35$$35$125 b$36$$35$$35$126))
(push 1)
(assert (not (= VV$35$$35$F$35$$35$7 n$35$$35$a1rN)))
(check-sat)
; SMT Says: Unsat
(pop 1)
(pop 1)
(push 1)
(assert (and (exists ((lq_karg$36$lq_anf$36$$35$$35$7205759403792815160$35$$35$d5BK$35$$35$k_$35$$35$707 Int) (lq_karg$36$lq_anf$36$$35$$35$7205759403792815162$35$$35$d5BM$35$$35$k_$35$$35$707 Bool) (lq_karg$36$lq_anf$36$$35$$35$7205759403792815163$35$$35$d5BN$35$$35$k_$35$$35$707 Bool) (lq_karg$36$VV$35$$35$706$35$$35$k_$35$$35$707 Int) (lq_karg$36$n$35$$35$a1rN$35$$35$k_$35$$35$707 Int) (lq_karg$36$lq_anf$36$$35$$35$7205759403792815161$35$$35$d5BL$35$$35$k_$35$$35$707 Int)) (and (= lq_karg$36$VV$35$$35$706$35$$35$k_$35$$35$707 VV$35$$35$F$35$$35$8) (= lq_karg$36$lq_anf$36$$35$$35$7205759403792815160$35$$35$d5BK$35$$35$k_$35$$35$707 lq_anf$36$$35$$35$7205759403792815160$35$$35$d5BK) (= lq_karg$36$lq_anf$36$$35$$35$7205759403792815161$35$$35$d5BL$35$$35$k_$35$$35$707 lq_anf$36$$35$$35$7205759403792815161$35$$35$d5BL) (= lq_karg$36$lq_anf$36$$35$$35$7205759403792815162$35$$35$d5BM$35$$35$k_$35$$35$707 lq_anf$36$$35$$35$7205759403792815162$35$$35$d5BM) (= lq_karg$36$lq_anf$36$$35$$35$7205759403792815163$35$$35$d5BN$35$$35$k_$35$$35$707 lq_anf$36$$35$$35$7205759403792815163$35$$35$d5BN) (= lq_karg$36$n$35$$35$a1rN$35$$35$k_$35$$35$707 n$35$$35$a1rN) (exists ((VV$35$$35$F$35$$35$9 Int)) (and (= VV$35$$35$F$35$$35$9 n$35$$35$a1rN) (= lq_karg$36$VV$35$$35$706$35$$35$k_$35$$35$707 VV$35$$35$F$35$$35$9) (= lq_karg$36$lq_anf$36$$35$$35$7205759403792815160$35$$35$d5BK$35$$35$k_$35$$35$707 lq_anf$36$$35$$35$7205759403792815160$35$$35$d5BK) (= lq_karg$36$lq_anf$36$$35$$35$7205759403792815161$35$$35$d5BL$35$$35$k_$35$$35$707 lq_anf$36$$35$$35$7205759403792815161$35$$35$d5BL) (= lq_karg$36$lq_anf$36$$35$$35$7205759403792815162$35$$35$d5BM$35$$35$k_$35$$35$707 lq_anf$36$$35$$35$7205759403792815162$35$$35$d5BM) (= lq_karg$36$lq_anf$36$$35$$35$7205759403792815163$35$$35$d5BN$35$$35$k_$35$$35$707 lq_anf$36$$35$$35$7205759403792815163$35$$35$d5BN) (= lq_karg$36$n$35$$35$a1rN$35$$35$k_$35$$35$707 n$35$$35$a1rN))))) b$36$$35$$35$65 b$36$$35$$35$80 b$36$$35$$35$121 b$36$$35$$35$122 b$36$$35$$35$123 b$36$$35$$35$124 b$36$$35$$35$125 b$36$$35$$35$126))
(push 1)
(assert (not (<= 2 VV$35$$35$F$35$$35$8)))
(check-sat)
; SMT Says: Unsat
(pop 1)
(pop 1)
(push 1)
(assert (and true b$36$$35$$35$96 b$36$$35$$35$65 b$36$$35$$35$97 b$36$$35$$35$98 b$36$$35$$35$99 b$36$$35$$35$100 b$36$$35$$35$101 b$36$$35$$35$102 b$36$$35$$35$103 b$36$$35$$35$104 b$36$$35$$35$105 b$36$$35$$35$106 b$36$$35$$35$107 b$36$$35$$35$108 b$36$$35$$35$111 b$36$$35$$35$80 b$36$$35$$35$93 b$36$$35$$35$94 b$36$$35$$35$95 b$36$$35$$35$159))
(push 1)
(assert (not false))
(check-sat)
; SMT Says: Unsat
(pop 1)
(pop 1)
(pop 1)
(pop 1)
